164	183	186	187	194	190	189	192	191	188	193	177	181	184	175	173	174	179	172	182	176	169	163	161	156	145	149	146	140	137	142	138	139	154	157	153	150	144	152	159	165	168	167	170	178	180	185	171	166	162	158	155	151	147	141	122	119	126	125	132	134	130	127	114	104	111	98	86	85	90	89	94	99	101	82	113	109	102	87	80	71	76	75	78	74	69	72	25	23	62	59	36	63	65	20	1	6	8	16	13	11	14	17	7	4	2	3	5	9	10	12	15	19	30	32	31	35	50	55	49	42	44	54	56	58	53	52	48	46	41	38	43	40	34	27	37	39	47	51	61	67	73	66	68	84	100	110	112	115	116	117	121	123	124	128	120	133	129	135	143	160	148	136	131	118	108	107	105	106	97	92	95	96	93	103	91	88	83	81	79	77	64	70	57	60	33	26	24	21	18	28	45	22	29	